<?xml version="1.0" encoding="UTF-8"?><osil xmlns="os.optimizationservices.org"   xmlns:xsi="http://www.w3.org/2001/XMLSchema-instance" xsi:schemaLocation="os.optimizationservices.org http://www.optimizationservices.org/schemas/2.0/OSiL.xsd" ><instanceHeader><name>q_40_0_75_2</name></instanceHeader><instanceData><variables numberOfVariables="40"><var name="x1" ub="1"/><var name="x2" ub="1"/><var name="x3" ub="1"/><var name="x4" ub="1"/><var name="x5" ub="1"/><var name="x6" ub="1"/><var name="x7" ub="1"/><var name="x8" ub="1"/><var name="x9" ub="1"/><var name="x10" ub="1"/><var name="x11" ub="1"/><var name="x12" ub="1"/><var name="x13" ub="1"/><var name="x14" ub="1"/><var name="x15" ub="1"/><var name="x16" ub="1"/><var name="x17" ub="1"/><var name="x18" ub="1"/><var name="x19" ub="1"/><var name="x20" ub="1"/><var name="x21" ub="1"/><var name="x22" ub="1"/><var name="x23" ub="1"/><var name="x24" ub="1"/><var name="x25" ub="1"/><var name="x26" ub="1"/><var name="x27" ub="1"/><var name="x28" ub="1"/><var name="x29" ub="1"/><var name="x30" ub="1"/><var name="x31" ub="1"/><var name="x32" ub="1"/><var name="x33" ub="1"/><var name="x34" ub="1"/><var name="x35" ub="1"/><var name="x36" ub="1"/><var name="x37" ub="1"/><var name="x38" ub="1"/><var name="x39" ub="1"/><var name="x40" ub="1"/></variables><objectives numberOfObjectives="1"><obj maxOrMin="min" name="defObj_x41" numberOfObjCoef="40"><coef idx="0">-.9624</coef><coef idx="1">-.172</coef><coef idx="2">.2328</coef><coef idx="3">-4.83e-2</coef><coef idx="4">-.8543</coef><coef idx="5">-.1414</coef><coef idx="6">-.6745</coef><coef idx="7">.2956</coef><coef idx="8">-.9646</coef><coef idx="9">.6631</coef><coef idx="10">-.921</coef><coef idx="11">.7216</coef><coef idx="12">-9.16e-2</coef><coef idx="13">.5066</coef><coef idx="14">-.2279</coef><coef idx="15">.4388</coef><coef idx="16">.1251</coef><coef idx="17">-.4666</coef><coef idx="18">-.6096</coef><coef idx="19">-.1296</coef><coef idx="20">.147</coef><coef idx="21">-.8773</coef><coef idx="22">.3256</coef><coef idx="23">.1917</coef><coef idx="24">-.7454</coef><coef idx="25">.953</coef><coef idx="26">-.2524</coef><coef idx="27">.6998</coef><coef idx="28">.9019</coef><coef idx="29">8.86e-2</coef><coef idx="30">-.745</coef><coef idx="31">.7499</coef><coef idx="32">6.4e-2</coef><coef idx="33">-.919</coef><coef idx="34">-.9064</coef><coef idx="35">.2797</coef><coef idx="36">-.6761</coef><coef idx="37">-.9433</coef><coef idx="38">.4738</coef><coef idx="39">-.469</coef></obj></objectives><quadraticCoefficients  numberOfQuadraticTerms="420" ><qTerm  idx="-1"  idxOne="0"  idxTwo="0"  coef="-.5412"/><qTerm  idx="-1"  idxOne="0"  idxTwo="1"  coef=".6908"/><qTerm  idx="-1"  idxOne="0"  idxTwo="2"  coef="-.5576"/><qTerm  idx="-1"  idxOne="0"  idxTwo="3"  coef=".1221"/><qTerm  idx="-1"  idxOne="0"  idxTwo="4"  coef="-.925"/><qTerm  idx="-1"  idxOne="0"  idxTwo="5"  coef=".4836"/><qTerm  idx="-1"  idxOne="0"  idxTwo="7"  coef="-.4814"/><qTerm  idx="-1"  idxOne="0"  idxTwo="8"  coef="-.8928"/><qTerm  idx="-1"  idxOne="0"  idxTwo="10"  coef=".8237"/><qTerm  idx="-1"  idxOne="0"  idxTwo="12"  coef=".2967"/><qTerm  idx="-1"  idxOne="0"  idxTwo="13"  coef=".519"/><qTerm  idx="-1"  idxOne="0"  idxTwo="17"  coef="-.4036"/><qTerm  idx="-1"  idxOne="0"  idxTwo="18"  coef=".2184"/><qTerm  idx="-1"  idxOne="0"  idxTwo="20"  coef=".5597"/><qTerm  idx="-1"  idxOne="0"  idxTwo="22"  coef="-.6636"/><qTerm  idx="-1"  idxOne="0"  idxTwo="23"  coef="-.2396"/><qTerm  idx="-1"  idxOne="0"  idxTwo="24"  coef=".2761"/><qTerm  idx="-1"  idxOne="0"  idxTwo="25"  coef="-.8421"/><qTerm  idx="-1"  idxOne="0"  idxTwo="26"  coef=".5215"/><qTerm  idx="-1"  idxOne="0"  idxTwo="29"  coef="-.3457"/><qTerm  idx="-1"  idxOne="0"  idxTwo="30"  coef=".54"/><qTerm  idx="-1"  idxOne="0"  idxTwo="31"  coef=".1788"/><qTerm  idx="-1"  idxOne="0"  idxTwo="32"  coef=".2414"/><qTerm  idx="-1"  idxOne="0"  idxTwo="34"  coef="-5.5e-2"/><qTerm  idx="-1"  idxOne="0"  idxTwo="35"  coef="-.2767"/><qTerm  idx="-1"  idxOne="0"  idxTwo="37"  coef=".3488"/><qTerm  idx="-1"  idxOne="0"  idxTwo="39"  coef="9.79e-2"/><qTerm  idx="-1"  idxOne="1"  idxTwo="2"  coef="-.6934"/><qTerm  idx="-1"  idxOne="1"  idxTwo="3"  coef="-.6615"/><qTerm  idx="-1"  idxOne="1"  idxTwo="4"  coef=".503"/><qTerm  idx="-1"  idxOne="1"  idxTwo="6"  coef="-.7626"/><qTerm  idx="-1"  idxOne="1"  idxTwo="7"  coef="-.7943"/><qTerm  idx="-1"  idxOne="1"  idxTwo="8"  coef="-.3063"/><qTerm  idx="-1"  idxOne="1"  idxTwo="9"  coef="5.58e-2"/><qTerm  idx="-1"  idxOne="1"  idxTwo="10"  coef="-.2301"/><qTerm  idx="-1"  idxOne="1"  idxTwo="12"  coef=".5779"/><qTerm  idx="-1"  idxOne="1"  idxTwo="14"  coef="-5.23e-2"/><qTerm  idx="-1"  idxOne="1"  idxTwo="15"  coef=".4117"/><qTerm  idx="-1"  idxOne="1"  idxTwo="21"  coef=".7896"/><qTerm  idx="-1"  idxOne="1"  idxTwo="22"  coef="-.3012"/><qTerm  idx="-1"  idxOne="1"  idxTwo="24"  coef="-1.66e-2"/><qTerm  idx="-1"  idxOne="1"  idxTwo="25"  coef="-.6013"/><qTerm  idx="-1"  idxOne="1"  idxTwo="27"  coef="-.27"/><qTerm  idx="-1"  idxOne="1"  idxTwo="30"  coef="-.5193"/><qTerm  idx="-1"  idxOne="1"  idxTwo="31"  coef="9.48e-2"/><qTerm  idx="-1"  idxOne="1"  idxTwo="32"  coef=".2315"/><qTerm  idx="-1"  idxOne="1"  idxTwo="35"  coef="-.8466"/><qTerm  idx="-1"  idxOne="1"  idxTwo="36"  coef="-.4082"/><qTerm  idx="-1"  idxOne="1"  idxTwo="37"  coef=".7234"/><qTerm  idx="-1"  idxOne="2"  idxTwo="2"  coef="-.2451"/><qTerm  idx="-1"  idxOne="2"  idxTwo="3"  coef=".486"/><qTerm  idx="-1"  idxOne="2"  idxTwo="4"  coef="-.9333"/><qTerm  idx="-1"  idxOne="2"  idxTwo="5"  coef="-.577"/><qTerm  idx="-1"  idxOne="2"  idxTwo="7"  coef=".6391"/><qTerm  idx="-1"  idxOne="2"  idxTwo="8"  coef="-7.8e-2"/><qTerm  idx="-1"  idxOne="2"  idxTwo="9"  coef="-.7901"/><qTerm  idx="-1"  idxOne="2"  idxTwo="10"  coef=".3108"/><qTerm  idx="-1"  idxOne="2"  idxTwo="14"  coef="-.5911"/><qTerm  idx="-1"  idxOne="2"  idxTwo="15"  coef="-.7161"/><qTerm  idx="-1"  idxOne="2"  idxTwo="17"  coef=".6677"/><qTerm  idx="-1"  idxOne="2"  idxTwo="18"  coef=".9834"/><qTerm  idx="-1"  idxOne="2"  idxTwo="20"  coef="-.2604"/><qTerm  idx="-1"  idxOne="2"  idxTwo="21"  coef=".1312"/><qTerm  idx="-1"  idxOne="2"  idxTwo="24"  coef=".1699"/><qTerm  idx="-1"  idxOne="2"  idxTwo="26"  coef=".8036"/><qTerm  idx="-1"  idxOne="2"  idxTwo="29"  coef=".4179"/><qTerm  idx="-1"  idxOne="2"  idxTwo="35"  coef="-.4876"/><qTerm  idx="-1"  idxOne="2"  idxTwo="36"  coef="-.9695"/><qTerm  idx="-1"  idxOne="2"  idxTwo="39"  coef=".8412"/><qTerm  idx="-1"  idxOne="3"  idxTwo="3"  coef="-.6245"/><qTerm  idx="-1"  idxOne="3"  idxTwo="4"  coef="-.2725"/><qTerm  idx="-1"  idxOne="3"  idxTwo="5"  coef=".9959"/><qTerm  idx="-1"  idxOne="3"  idxTwo="9"  coef=".7839"/><qTerm  idx="-1"  idxOne="3"  idxTwo="11"  coef="-.2566"/><qTerm  idx="-1"  idxOne="3"  idxTwo="12"  coef="-.3715"/><qTerm  idx="-1"  idxOne="3"  idxTwo="14"  coef="-.1659"/><qTerm  idx="-1"  idxOne="3"  idxTwo="15"  coef="-.3605"/><qTerm  idx="-1"  idxOne="3"  idxTwo="16"  coef=".4571"/><qTerm  idx="-1"  idxOne="3"  idxTwo="18"  coef=".157"/><qTerm  idx="-1"  idxOne="3"  idxTwo="19"  coef=".3664"/><qTerm  idx="-1"  idxOne="3"  idxTwo="20"  coef=".2114"/><qTerm  idx="-1"  idxOne="3"  idxTwo="21"  coef="-.8717"/><qTerm  idx="-1"  idxOne="3"  idxTwo="23"  coef=".7656"/><qTerm  idx="-1"  idxOne="3"  idxTwo="26"  coef="-.1614"/><qTerm  idx="-1"  idxOne="3"  idxTwo="28"  coef=".208"/><qTerm  idx="-1"  idxOne="3"  idxTwo="31"  coef=".2939"/><qTerm  idx="-1"  idxOne="3"  idxTwo="33"  coef=".4719"/><qTerm  idx="-1"  idxOne="3"  idxTwo="34"  coef=".1079"/><qTerm  idx="-1"  idxOne="3"  idxTwo="35"  coef="-.1952"/><qTerm  idx="-1"  idxOne="3"  idxTwo="38"  coef=".9831"/><qTerm  idx="-1"  idxOne="3"  idxTwo="39"  coef="-.3912"/><qTerm  idx="-1"  idxOne="4"  idxTwo="5"  coef="-1.64e-2"/><qTerm  idx="-1"  idxOne="4"  idxTwo="6"  coef="-.7641"/><qTerm  idx="-1"  idxOne="4"  idxTwo="9"  coef=".825"/><qTerm  idx="-1"  idxOne="4"  idxTwo="10"  coef=".7573"/><qTerm  idx="-1"  idxOne="4"  idxTwo="13"  coef="-7.31e-2"/><qTerm  idx="-1"  idxOne="4"  idxTwo="15"  coef="-.7839"/><qTerm  idx="-1"  idxOne="4"  idxTwo="17"  coef=".2375"/><qTerm  idx="-1"  idxOne="4"  idxTwo="18"  coef=".342"/><qTerm  idx="-1"  idxOne="4"  idxTwo="20"  coef="-.2362"/><qTerm  idx="-1"  idxOne="4"  idxTwo="24"  coef=".7813"/><qTerm  idx="-1"  idxOne="4"  idxTwo="30"  coef=".6021"/><qTerm  idx="-1"  idxOne="4"  idxTwo="33"  coef=".3864"/><qTerm  idx="-1"  idxOne="4"  idxTwo="34"  coef=".7828"/><qTerm  idx="-1"  idxOne="4"  idxTwo="35"  coef="-.2355"/><qTerm  idx="-1"  idxOne="4"  idxTwo="38"  coef=".1796"/><qTerm  idx="-1"  idxOne="4"  idxTwo="39"  coef="-.7816"/><qTerm  idx="-1"  idxOne="5"  idxTwo="5"  coef=".6992"/><qTerm  idx="-1"  idxOne="5"  idxTwo="6"  coef="-.5391"/><qTerm  idx="-1"  idxOne="5"  idxTwo="8"  coef=".1898"/><qTerm  idx="-1"  idxOne="5"  idxTwo="10"  coef="-.3419"/><qTerm  idx="-1"  idxOne="5"  idxTwo="11"  coef="-.6057"/><qTerm  idx="-1"  idxOne="5"  idxTwo="12"  coef=".4886"/><qTerm  idx="-1"  idxOne="5"  idxTwo="13"  coef="-6.93e-2"/><qTerm  idx="-1"  idxOne="5"  idxTwo="17"  coef=".6415"/><qTerm  idx="-1"  idxOne="5"  idxTwo="18"  coef="-.1695"/><qTerm  idx="-1"  idxOne="5"  idxTwo="19"  coef="-.662"/><qTerm  idx="-1"  idxOne="5"  idxTwo="20"  coef="-.6558"/><qTerm  idx="-1"  idxOne="5"  idxTwo="23"  coef="-.2137"/><qTerm  idx="-1"  idxOne="5"  idxTwo="24"  coef="8.07e-2"/><qTerm  idx="-1"  idxOne="5"  idxTwo="25"  coef=".2775"/><qTerm  idx="-1"  idxOne="5"  idxTwo="30"  coef="-.639"/><qTerm  idx="-1"  idxOne="5"  idxTwo="32"  coef=".1566"/><qTerm  idx="-1"  idxOne="5"  idxTwo="33"  coef=".4792"/><qTerm  idx="-1"  idxOne="5"  idxTwo="34"  coef=".1403"/><qTerm  idx="-1"  idxOne="5"  idxTwo="36"  coef="-.6095"/><qTerm  idx="-1"  idxOne="5"  idxTwo="39"  coef=".9322"/><qTerm  idx="-1"  idxOne="6"  idxTwo="7"  coef="-2.14e-2"/><qTerm  idx="-1"  idxOne="6"  idxTwo="8"  coef=".3126"/><qTerm  idx="-1"  idxOne="6"  idxTwo="12"  coef="-.6241"/><qTerm  idx="-1"  idxOne="6"  idxTwo="13"  coef=".1136"/><qTerm  idx="-1"  idxOne="6"  idxTwo="17"  coef=".4677"/><qTerm  idx="-1"  idxOne="6"  idxTwo="18"  coef="-.6577"/><qTerm  idx="-1"  idxOne="6"  idxTwo="21"  coef=".3394"/><qTerm  idx="-1"  idxOne="6"  idxTwo="22"  coef="-.7785"/><qTerm  idx="-1"  idxOne="6"  idxTwo="23"  coef="-.7024"/><qTerm  idx="-1"  idxOne="6"  idxTwo="24"  coef=".2443"/><qTerm  idx="-1"  idxOne="6"  idxTwo="26"  coef="-.2521"/><qTerm  idx="-1"  idxOne="6"  idxTwo="28"  coef=".2286"/><qTerm  idx="-1"  idxOne="6"  idxTwo="30"  coef="-9.91e-2"/><qTerm  idx="-1"  idxOne="6"  idxTwo="33"  coef="-.7218"/><qTerm  idx="-1"  idxOne="6"  idxTwo="35"  coef=".9204"/><qTerm  idx="-1"  idxOne="7"  idxTwo="10"  coef="-.1743"/><qTerm  idx="-1"  idxOne="7"  idxTwo="11"  coef=".2405"/><qTerm  idx="-1"  idxOne="7"  idxTwo="12"  coef=".1433"/><qTerm  idx="-1"  idxOne="7"  idxTwo="13"  coef=".402"/><qTerm  idx="-1"  idxOne="7"  idxTwo="16"  coef=".7113"/><qTerm  idx="-1"  idxOne="7"  idxTwo="18"  coef="-.14"/><qTerm  idx="-1"  idxOne="7"  idxTwo="20"  coef=".1251"/><qTerm  idx="-1"  idxOne="7"  idxTwo="23"  coef="4.73e-2"/><qTerm  idx="-1"  idxOne="7"  idxTwo="27"  coef="-.5929"/><qTerm  idx="-1"  idxOne="7"  idxTwo="28"  coef="6.49e-2"/><qTerm  idx="-1"  idxOne="7"  idxTwo="29"  coef=".9708"/><qTerm  idx="-1"  idxOne="7"  idxTwo="30"  coef=".6177"/><qTerm  idx="-1"  idxOne="7"  idxTwo="31"  coef=".5806"/><qTerm  idx="-1"  idxOne="7"  idxTwo="34"  coef="-.1607"/><qTerm  idx="-1"  idxOne="7"  idxTwo="36"  coef="5.9e-2"/><qTerm  idx="-1"  idxOne="7"  idxTwo="37"  coef="-.8811"/><qTerm  idx="-1"  idxOne="7"  idxTwo="38"  coef="-.4492"/><qTerm  idx="-1"  idxOne="7"  idxTwo="39"  coef=".7614"/><qTerm  idx="-1"  idxOne="8"  idxTwo="11"  coef=".2033"/><qTerm  idx="-1"  idxOne="8"  idxTwo="12"  coef="-.9171"/><qTerm  idx="-1"  idxOne="8"  idxTwo="13"  coef="-3.82e-2"/><qTerm  idx="-1"  idxOne="8"  idxTwo="14"  coef="-.8299"/><qTerm  idx="-1"  idxOne="8"  idxTwo="15"  coef="-.5709"/><qTerm  idx="-1"  idxOne="8"  idxTwo="17"  coef="-.396"/><qTerm  idx="-1"  idxOne="8"  idxTwo="20"  coef=".7934"/><qTerm  idx="-1"  idxOne="8"  idxTwo="21"  coef="6.89e-2"/><qTerm  idx="-1"  idxOne="8"  idxTwo="24"  coef="-.4928"/><qTerm  idx="-1"  idxOne="8"  idxTwo="27"  coef="-.4895"/><qTerm  idx="-1"  idxOne="8"  idxTwo="34"  coef=".8422"/><qTerm  idx="-1"  idxOne="8"  idxTwo="35"  coef=".8058"/><qTerm  idx="-1"  idxOne="8"  idxTwo="37"  coef="-.3989"/><qTerm  idx="-1"  idxOne="8"  idxTwo="38"  coef="-.7604"/><qTerm  idx="-1"  idxOne="8"  idxTwo="39"  coef="-.2455"/><qTerm  idx="-1"  idxOne="9"  idxTwo="9"  coef="-.1685"/><qTerm  idx="-1"  idxOne="9"  idxTwo="14"  coef="-.5593"/><qTerm  idx="-1"  idxOne="9"  idxTwo="15"  coef="-.7832"/><qTerm  idx="-1"  idxOne="9"  idxTwo="21"  coef="9.26e-2"/><qTerm  idx="-1"  idxOne="9"  idxTwo="22"  coef=".6215"/><qTerm  idx="-1"  idxOne="9"  idxTwo="23"  coef=".3352"/><qTerm  idx="-1"  idxOne="9"  idxTwo="25"  coef=".3423"/><qTerm  idx="-1"  idxOne="9"  idxTwo="26"  coef="-.8728"/><qTerm  idx="-1"  idxOne="9"  idxTwo="28"  coef=".6484"/><qTerm  idx="-1"  idxOne="9"  idxTwo="30"  coef="-.2626"/><qTerm  idx="-1"  idxOne="9"  idxTwo="32"  coef="-.9557"/><qTerm  idx="-1"  idxOne="9"  idxTwo="33"  coef="-4.3e-3"/><qTerm  idx="-1"  idxOne="9"  idxTwo="34"  coef="-.3711"/><qTerm  idx="-1"  idxOne="9"  idxTwo="36"  coef="-.3175"/><qTerm  idx="-1"  idxOne="9"  idxTwo="38"  coef="-.3467"/><qTerm  idx="-1"  idxOne="10"  idxTwo="11"  coef="-8.37e-2"/><qTerm  idx="-1"  idxOne="10"  idxTwo="13"  coef=".397"/><qTerm  idx="-1"  idxOne="10"  idxTwo="14"  coef="-.8681"/><qTerm  idx="-1"  idxOne="10"  idxTwo="15"  coef="-.2124"/><qTerm  idx="-1"  idxOne="10"  idxTwo="17"  coef=".9815"/><qTerm  idx="-1"  idxOne="10"  idxTwo="18"  coef="-.5043"/><qTerm  idx="-1"  idxOne="10"  idxTwo="19"  coef="-.2869"/><qTerm  idx="-1"  idxOne="10"  idxTwo="20"  coef=".6841"/><qTerm  idx="-1"  idxOne="10"  idxTwo="22"  coef="-.4616"/><qTerm  idx="-1"  idxOne="10"  idxTwo="23"  coef=".4655"/><qTerm  idx="-1"  idxOne="10"  idxTwo="25"  coef="-.6494"/><qTerm  idx="-1"  idxOne="10"  idxTwo="27"  coef="-.2862"/><qTerm  idx="-1"  idxOne="10"  idxTwo="30"  coef="-.5755"/><qTerm  idx="-1"  idxOne="10"  idxTwo="31"  coef="-.5887"/><qTerm  idx="-1"  idxOne="10"  idxTwo="36"  coef=".3282"/><qTerm  idx="-1"  idxOne="10"  idxTwo="37"  coef="7.74e-2"/><qTerm  idx="-1"  idxOne="10"  idxTwo="38"  coef=".6841"/><qTerm  idx="-1"  idxOne="11"  idxTwo="11"  coef="-.2826"/><qTerm  idx="-1"  idxOne="11"  idxTwo="13"  coef=".9124"/><qTerm  idx="-1"  idxOne="11"  idxTwo="14"  coef=".8253"/><qTerm  idx="-1"  idxOne="11"  idxTwo="15"  coef=".1537"/><qTerm  idx="-1"  idxOne="11"  idxTwo="16"  coef="-.6056"/><qTerm  idx="-1"  idxOne="11"  idxTwo="17"  coef=".1527"/><qTerm  idx="-1"  idxOne="11"  idxTwo="22"  coef=".8957"/><qTerm  idx="-1"  idxOne="11"  idxTwo="23"  coef="-.5742"/><qTerm  idx="-1"  idxOne="11"  idxTwo="24"  coef=".235"/><qTerm  idx="-1"  idxOne="11"  idxTwo="27"  coef="-.5581"/><qTerm  idx="-1"  idxOne="11"  idxTwo="31"  coef="-.6459"/><qTerm  idx="-1"  idxOne="11"  idxTwo="32"  coef=".6936"/><qTerm  idx="-1"  idxOne="11"  idxTwo="33"  coef=".5801"/><qTerm  idx="-1"  idxOne="11"  idxTwo="34"  coef=".6639"/><qTerm  idx="-1"  idxOne="11"  idxTwo="36"  coef=".6154"/><qTerm  idx="-1"  idxOne="11"  idxTwo="37"  coef=".593"/><qTerm  idx="-1"  idxOne="11"  idxTwo="38"  coef="-.5041"/><qTerm  idx="-1"  idxOne="12"  idxTwo="15"  coef="-.8966"/><qTerm  idx="-1"  idxOne="12"  idxTwo="16"  coef=".2624"/><qTerm  idx="-1"  idxOne="12"  idxTwo="22"  coef=".1377"/><qTerm  idx="-1"  idxOne="12"  idxTwo="25"  coef="-.3901"/><qTerm  idx="-1"  idxOne="12"  idxTwo="29"  coef="-.244"/><qTerm  idx="-1"  idxOne="12"  idxTwo="30"  coef="-8.98e-2"/><qTerm  idx="-1"  idxOne="12"  idxTwo="32"  coef=".7614"/><qTerm  idx="-1"  idxOne="12"  idxTwo="33"  coef="-.7333"/><qTerm  idx="-1"  idxOne="12"  idxTwo="35"  coef=".3803"/><qTerm  idx="-1"  idxOne="12"  idxTwo="37"  coef=".6721"/><qTerm  idx="-1"  idxOne="12"  idxTwo="39"  coef="-.1619"/><qTerm  idx="-1"  idxOne="13"  idxTwo="14"  coef=".8134"/><qTerm  idx="-1"  idxOne="13"  idxTwo="16"  coef=".9525"/><qTerm  idx="-1"  idxOne="13"  idxTwo="17"  coef=".992"/><qTerm  idx="-1"  idxOne="13"  idxTwo="18"  coef=".7007"/><qTerm  idx="-1"  idxOne="13"  idxTwo="20"  coef=".3342"/><qTerm  idx="-1"  idxOne="13"  idxTwo="26"  coef=".7684"/><qTerm  idx="-1"  idxOne="13"  idxTwo="27"  coef=".3835"/><qTerm  idx="-1"  idxOne="13"  idxTwo="33"  coef="-.3171"/><qTerm  idx="-1"  idxOne="13"  idxTwo="35"  coef="-.5577"/><qTerm  idx="-1"  idxOne="13"  idxTwo="39"  coef=".6115"/><qTerm  idx="-1"  idxOne="14"  idxTwo="14"  coef="-.1189"/><qTerm  idx="-1"  idxOne="14"  idxTwo="15"  coef=".8643"/><qTerm  idx="-1"  idxOne="14"  idxTwo="16"  coef=".3953"/><qTerm  idx="-1"  idxOne="14"  idxTwo="17"  coef="-.3491"/><qTerm  idx="-1"  idxOne="14"  idxTwo="18"  coef="-.7712"/><qTerm  idx="-1"  idxOne="14"  idxTwo="19"  coef="-.8291"/><qTerm  idx="-1"  idxOne="14"  idxTwo="23"  coef="-.3737"/><qTerm  idx="-1"  idxOne="14"  idxTwo="24"  coef=".388"/><qTerm  idx="-1"  idxOne="14"  idxTwo="27"  coef="-.5345"/><qTerm  idx="-1"  idxOne="14"  idxTwo="28"  coef="-.2952"/><qTerm  idx="-1"  idxOne="14"  idxTwo="31"  coef=".2886"/><qTerm  idx="-1"  idxOne="14"  idxTwo="32"  coef="7.65e-2"/><qTerm  idx="-1"  idxOne="14"  idxTwo="34"  coef=".8758"/><qTerm  idx="-1"  idxOne="14"  idxTwo="35"  coef=".4549"/><qTerm  idx="-1"  idxOne="14"  idxTwo="38"  coef="-2.36e-2"/><qTerm  idx="-1"  idxOne="14"  idxTwo="39"  coef="-.1005"/><qTerm  idx="-1"  idxOne="15"  idxTwo="15"  coef=".7607"/><qTerm  idx="-1"  idxOne="15"  idxTwo="21"  coef="-.7844"/><qTerm  idx="-1"  idxOne="15"  idxTwo="24"  coef="-4.79e-2"/><qTerm  idx="-1"  idxOne="15"  idxTwo="33"  coef=".9452"/><qTerm  idx="-1"  idxOne="15"  idxTwo="35"  coef="-.1973"/><qTerm  idx="-1"  idxOne="15"  idxTwo="37"  coef=".6377"/><qTerm  idx="-1"  idxOne="16"  idxTwo="16"  coef=".5098"/><qTerm  idx="-1"  idxOne="16"  idxTwo="19"  coef="-.3909"/><qTerm  idx="-1"  idxOne="16"  idxTwo="21"  coef=".9553"/><qTerm  idx="-1"  idxOne="16"  idxTwo="25"  coef=".1032"/><qTerm  idx="-1"  idxOne="16"  idxTwo="26"  coef=".6899"/><qTerm  idx="-1"  idxOne="16"  idxTwo="29"  coef=".8619"/><qTerm  idx="-1"  idxOne="16"  idxTwo="32"  coef=".3971"/><qTerm  idx="-1"  idxOne="16"  idxTwo="33"  coef="-.3458"/><qTerm  idx="-1"  idxOne="16"  idxTwo="34"  coef="-.5388"/><qTerm  idx="-1"  idxOne="16"  idxTwo="38"  coef=".8271"/><qTerm  idx="-1"  idxOne="16"  idxTwo="39"  coef="-.4226"/><qTerm  idx="-1"  idxOne="17"  idxTwo="17"  coef=".3216"/><qTerm  idx="-1"  idxOne="17"  idxTwo="18"  coef=".5984"/><qTerm  idx="-1"  idxOne="17"  idxTwo="20"  coef=".8383"/><qTerm  idx="-1"  idxOne="17"  idxTwo="21"  coef=".9912"/><qTerm  idx="-1"  idxOne="17"  idxTwo="25"  coef="-.6707"/><qTerm  idx="-1"  idxOne="17"  idxTwo="28"  coef=".623"/><qTerm  idx="-1"  idxOne="17"  idxTwo="31"  coef=".93"/><qTerm  idx="-1"  idxOne="17"  idxTwo="35"  coef="-.9724"/><qTerm  idx="-1"  idxOne="17"  idxTwo="37"  coef=".693"/><qTerm  idx="-1"  idxOne="17"  idxTwo="38"  coef="-.4268"/><qTerm  idx="-1"  idxOne="17"  idxTwo="39"  coef="-.9103"/><qTerm  idx="-1"  idxOne="18"  idxTwo="21"  coef="7.69e-2"/><qTerm  idx="-1"  idxOne="18"  idxTwo="22"  coef="-.9401"/><qTerm  idx="-1"  idxOne="18"  idxTwo="25"  coef=".4041"/><qTerm  idx="-1"  idxOne="18"  idxTwo="28"  coef=".256"/><qTerm  idx="-1"  idxOne="18"  idxTwo="30"  coef="-.4499"/><qTerm  idx="-1"  idxOne="18"  idxTwo="31"  coef="-.967"/><qTerm  idx="-1"  idxOne="18"  idxTwo="34"  coef=".7441"/><qTerm  idx="-1"  idxOne="18"  idxTwo="35"  coef=".9925"/><qTerm  idx="-1"  idxOne="18"  idxTwo="37"  coef="-.8395"/><qTerm  idx="-1"  idxOne="18"  idxTwo="38"  coef="6.52e-2"/><qTerm  idx="-1"  idxOne="18"  idxTwo="39"  coef=".6151"/><qTerm  idx="-1"  idxOne="19"  idxTwo="19"  coef="-.5872"/><qTerm  idx="-1"  idxOne="19"  idxTwo="23"  coef="-2.1e-2"/><qTerm  idx="-1"  idxOne="19"  idxTwo="24"  coef="-.355"/><qTerm  idx="-1"  idxOne="19"  idxTwo="25"  coef="-8.04e-2"/><qTerm  idx="-1"  idxOne="19"  idxTwo="26"  coef="-.8904"/><qTerm  idx="-1"  idxOne="19"  idxTwo="29"  coef="4.57e-2"/><qTerm  idx="-1"  idxOne="19"  idxTwo="30"  coef=".9914"/><qTerm  idx="-1"  idxOne="19"  idxTwo="32"  coef="-.2043"/><qTerm  idx="-1"  idxOne="19"  idxTwo="35"  coef="-.8175"/><qTerm  idx="-1"  idxOne="19"  idxTwo="37"  coef="-.3506"/><qTerm  idx="-1"  idxOne="19"  idxTwo="39"  coef=".8449"/><qTerm  idx="-1"  idxOne="20"  idxTwo="21"  coef=".9969"/><qTerm  idx="-1"  idxOne="20"  idxTwo="22"  coef=".7066"/><qTerm  idx="-1"  idxOne="20"  idxTwo="24"  coef=".7814"/><qTerm  idx="-1"  idxOne="20"  idxTwo="28"  coef="-.2681"/><qTerm  idx="-1"  idxOne="20"  idxTwo="33"  coef=".1122"/><qTerm  idx="-1"  idxOne="20"  idxTwo="37"  coef=".5142"/><qTerm  idx="-1"  idxOne="20"  idxTwo="38"  coef=".5563"/><qTerm  idx="-1"  idxOne="20"  idxTwo="39"  coef=".7168"/><qTerm  idx="-1"  idxOne="21"  idxTwo="22"  coef=".1767"/><qTerm  idx="-1"  idxOne="21"  idxTwo="24"  coef="-.4082"/><qTerm  idx="-1"  idxOne="21"  idxTwo="25"  coef=".6883"/><qTerm  idx="-1"  idxOne="21"  idxTwo="26"  coef=".4342"/><qTerm  idx="-1"  idxOne="21"  idxTwo="27"  coef=".2648"/><qTerm  idx="-1"  idxOne="21"  idxTwo="29"  coef=".3778"/><qTerm  idx="-1"  idxOne="21"  idxTwo="30"  coef="-.8064"/><qTerm  idx="-1"  idxOne="21"  idxTwo="33"  coef=".6143"/><qTerm  idx="-1"  idxOne="21"  idxTwo="35"  coef="7.3e-3"/><qTerm  idx="-1"  idxOne="21"  idxTwo="37"  coef="-.385"/><qTerm  idx="-1"  idxOne="21"  idxTwo="38"  coef="-.1292"/><qTerm  idx="-1"  idxOne="21"  idxTwo="39"  coef="7.95e-2"/><qTerm  idx="-1"  idxOne="22"  idxTwo="23"  coef="-.3467"/><qTerm  idx="-1"  idxOne="22"  idxTwo="25"  coef=".4255"/><qTerm  idx="-1"  idxOne="22"  idxTwo="30"  coef=".5645"/><qTerm  idx="-1"  idxOne="22"  idxTwo="34"  coef="-.6424"/><qTerm  idx="-1"  idxOne="22"  idxTwo="38"  coef="1.19e-2"/><qTerm  idx="-1"  idxOne="22"  idxTwo="39"  coef="-.6729"/><qTerm  idx="-1"  idxOne="23"  idxTwo="23"  coef=".5847"/><qTerm  idx="-1"  idxOne="23"  idxTwo="25"  coef=".7055"/><qTerm  idx="-1"  idxOne="23"  idxTwo="27"  coef=".325"/><qTerm  idx="-1"  idxOne="23"  idxTwo="28"  coef=".2792"/><qTerm  idx="-1"  idxOne="23"  idxTwo="30"  coef="9.1e-3"/><qTerm  idx="-1"  idxOne="23"  idxTwo="31"  coef="-.8959"/><qTerm  idx="-1"  idxOne="23"  idxTwo="35"  coef="-.2254"/><qTerm  idx="-1"  idxOne="24"  idxTwo="27"  coef=".718"/><qTerm  idx="-1"  idxOne="24"  idxTwo="30"  coef=".7289"/><qTerm  idx="-1"  idxOne="24"  idxTwo="32"  coef="8.95e-2"/><qTerm  idx="-1"  idxOne="24"  idxTwo="33"  coef="-.3158"/><qTerm  idx="-1"  idxOne="24"  idxTwo="35"  coef="-.6424"/><qTerm  idx="-1"  idxOne="24"  idxTwo="36"  coef="-.4076"/><qTerm  idx="-1"  idxOne="24"  idxTwo="37"  coef="-.7606"/><qTerm  idx="-1"  idxOne="24"  idxTwo="38"  coef="-.4835"/><qTerm  idx="-1"  idxOne="25"  idxTwo="25"  coef=".7128"/><qTerm  idx="-1"  idxOne="25"  idxTwo="31"  coef="-.7993"/><qTerm  idx="-1"  idxOne="25"  idxTwo="32"  coef=".1586"/><qTerm  idx="-1"  idxOne="25"  idxTwo="34"  coef="-.2892"/><qTerm  idx="-1"  idxOne="25"  idxTwo="36"  coef="-.297"/><qTerm  idx="-1"  idxOne="25"  idxTwo="37"  coef=".4053"/><qTerm  idx="-1"  idxOne="25"  idxTwo="39"  coef=".5703"/><qTerm  idx="-1"  idxOne="26"  idxTwo="27"  coef=".8903"/><qTerm  idx="-1"  idxOne="26"  idxTwo="28"  coef="-.7035"/><qTerm  idx="-1"  idxOne="26"  idxTwo="32"  coef=".607"/><qTerm  idx="-1"  idxOne="26"  idxTwo="33"  coef="-.984"/><qTerm  idx="-1"  idxOne="26"  idxTwo="34"  coef=".1984"/><qTerm  idx="-1"  idxOne="26"  idxTwo="39"  coef="-.3261"/><qTerm  idx="-1"  idxOne="27"  idxTwo="27"  coef=".9942"/><qTerm  idx="-1"  idxOne="27"  idxTwo="28"  coef=".4899"/><qTerm  idx="-1"  idxOne="27"  idxTwo="29"  coef=".1859"/><qTerm  idx="-1"  idxOne="27"  idxTwo="35"  coef=".7152"/><qTerm  idx="-1"  idxOne="27"  idxTwo="39"  coef=".6231"/><qTerm  idx="-1"  idxOne="28"  idxTwo="28"  coef="-.3239"/><qTerm  idx="-1"  idxOne="28"  idxTwo="29"  coef=".6656"/><qTerm  idx="-1"  idxOne="28"  idxTwo="30"  coef=".6511"/><qTerm  idx="-1"  idxOne="28"  idxTwo="32"  coef=".4798"/><qTerm  idx="-1"  idxOne="28"  idxTwo="35"  coef="-.6549"/><qTerm  idx="-1"  idxOne="28"  idxTwo="37"  coef=".3657"/><qTerm  idx="-1"  idxOne="28"  idxTwo="39"  coef=".2469"/><qTerm  idx="-1"  idxOne="29"  idxTwo="30"  coef=".1256"/><qTerm  idx="-1"  idxOne="29"  idxTwo="31"  coef="-.83"/><qTerm  idx="-1"  idxOne="29"  idxTwo="32"  coef=".8632"/><qTerm  idx="-1"  idxOne="29"  idxTwo="34"  coef="-.6316"/><qTerm  idx="-1"  idxOne="29"  idxTwo="35"  coef=".901"/><qTerm  idx="-1"  idxOne="29"  idxTwo="36"  coef=".2282"/><qTerm  idx="-1"  idxOne="29"  idxTwo="37"  coef="-.3158"/><qTerm  idx="-1"  idxOne="29"  idxTwo="38"  coef="-.9495"/><qTerm  idx="-1"  idxOne="30"  idxTwo="30"  coef=".379"/><qTerm  idx="-1"  idxOne="30"  idxTwo="31"  coef="-.7787"/><qTerm  idx="-1"  idxOne="30"  idxTwo="32"  coef="-.3534"/><qTerm  idx="-1"  idxOne="30"  idxTwo="33"  coef="5.3e-3"/><qTerm  idx="-1"  idxOne="30"  idxTwo="34"  coef="-.1876"/><qTerm  idx="-1"  idxOne="30"  idxTwo="36"  coef="-.502"/><qTerm  idx="-1"  idxOne="30"  idxTwo="38"  coef=".1311"/><qTerm  idx="-1"  idxOne="31"  idxTwo="31"  coef=".6431"/><qTerm  idx="-1"  idxOne="31"  idxTwo="32"  coef=".3694"/><qTerm  idx="-1"  idxOne="31"  idxTwo="33"  coef="-.7882"/><qTerm  idx="-1"  idxOne="31"  idxTwo="34"  coef="-.3699"/><qTerm  idx="-1"  idxOne="31"  idxTwo="37"  coef="-.874"/><qTerm  idx="-1"  idxOne="31"  idxTwo="38"  coef="-.4416"/><qTerm  idx="-1"  idxOne="32"  idxTwo="33"  coef=".2313"/><qTerm  idx="-1"  idxOne="32"  idxTwo="34"  coef=".357"/><qTerm  idx="-1"  idxOne="32"  idxTwo="35"  coef=".1096"/><qTerm  idx="-1"  idxOne="32"  idxTwo="39"  coef=".9751"/><qTerm  idx="-1"  idxOne="33"  idxTwo="33"  coef=".4229"/><qTerm  idx="-1"  idxOne="33"  idxTwo="37"  coef="-6.38e-2"/><qTerm  idx="-1"  idxOne="33"  idxTwo="38"  coef=".9879"/><qTerm  idx="-1"  idxOne="33"  idxTwo="39"  coef=".8635"/><qTerm  idx="-1"  idxOne="34"  idxTwo="34"  coef=".4333"/><qTerm  idx="-1"  idxOne="34"  idxTwo="36"  coef=".8267"/><qTerm  idx="-1"  idxOne="34"  idxTwo="37"  coef=".3304"/><qTerm  idx="-1"  idxOne="34"  idxTwo="38"  coef=".7375"/><qTerm  idx="-1"  idxOne="34"  idxTwo="39"  coef=".1234"/><qTerm  idx="-1"  idxOne="35"  idxTwo="35"  coef="-.2028"/><qTerm  idx="-1"  idxOne="35"  idxTwo="37"  coef=".4864"/><qTerm  idx="-1"  idxOne="35"  idxTwo="38"  coef=".4254"/><qTerm  idx="-1"  idxOne="36"  idxTwo="36"  coef="-.7986"/><qTerm  idx="-1"  idxOne="36"  idxTwo="39"  coef="-.3318"/><qTerm  idx="-1"  idxOne="37"  idxTwo="37"  coef=".7505"/><qTerm  idx="-1"  idxOne="37"  idxTwo="39"  coef=".8088"/><qTerm  idx="-1"  idxOne="38"  idxTwo="38"  coef="-.4503"/><qTerm  idx="-1"  idxOne="39"  idxTwo="39"  coef=".8307"/></quadraticCoefficients></instanceData></osil>
